(set-info :smt-lib-version 2.6)
(set-logic QF_NIA)
(set-info :source |
Generated by: Cristina Borralleras, Daniel Larraz, Albert Oliveras, Enric Rodriguez-Carbonell, Albert Rubio
Generated on: 2017-04-27
Generator: VeryMax
Application: Termination proving
Target solver: barcelogic
|)
(set-info :license "https://creativecommons.org/licenses/by/4.0/")
(set-info :category "industrial")
(set-info :status unsat)
(declare-fun Nl3Pdolen^01 () Int)
(declare-fun Nl3i^01 () Int)
(declare-fun Nl3num^01 () Int)
(declare-fun lam0n0 () Int)
(declare-fun lam0n1 () Int)
(declare-fun lam0n2 () Int)
(declare-fun lam0n3 () Int)
(declare-fun Nl3CT1 () Int)
(declare-fun lam1n0 () Int)
(declare-fun lam1n1 () Int)
(declare-fun lam1n2 () Int)
(declare-fun lam1n3 () Int)
(declare-fun lam2n0 () Int)
(declare-fun lam2n1 () Int)
(declare-fun lam2n2 () Int)
(declare-fun lam2n3 () Int)
(declare-fun lam2n4 () Int)
(declare-fun lam3n0 () Int)
(declare-fun lam3n1 () Int)
(declare-fun lam3n2 () Int)
(declare-fun lam3n3 () Int)
(declare-fun lam3n4 () Int)
(declare-fun lam4n0 () Int)
(declare-fun lam4n1 () Int)
(declare-fun lam4n2 () Int)
(declare-fun Pdolen^0 () Int)
(declare-fun i^0 () Int)
(declare-fun undef106 () Int)
(declare-fun undef108 () Int)
(declare-fun num^0 () Int)
(declare-fun lam8n0 () Int)
(declare-fun lam8n1 () Int)
(declare-fun lam8n2 () Int)
(declare-fun lam8n3 () Int)
(declare-fun lam8n4 () Int)
(declare-fun RFN1_CT () Int)
(declare-fun RFN1_num^0 () Int)
(declare-fun RFN1_Pdolen^0 () Int)
(declare-fun RFN1_i^0 () Int)
(declare-fun lam6n0 () Int)
(declare-fun lam6n1 () Int)
(declare-fun lam6n2 () Int)
(declare-fun lam6n3 () Int)
(declare-fun lam6n4 () Int)
(declare-fun lam7n0 () Int)
(declare-fun lam7n1 () Int)
(declare-fun lam7n2 () Int)
(declare-fun lam7n3 () Int)
(declare-fun lam7n4 () Int)
(declare-fun lam5n0 () Int)
(declare-fun lam5n1 () Int)
(declare-fun lam5n2 () Int)
(declare-fun lam5n3 () Int)
(declare-fun lam5n4 () Int)
(assert ( and ( <= ( - 1 ) Nl3Pdolen^01 ) ( <= Nl3Pdolen^01 1 ) ( <= ( - 1 ) Nl3i^01 ) ( <= Nl3i^01 1 ) ( <= ( - 1 ) Nl3num^01 ) ( <= Nl3num^01 1 ) ))
(assert ( or ( and ( >= lam0n0 0 ) ( >= lam0n1 0 ) ( >= lam0n2 0 ) ( >= lam0n3 0 ) ( > ( + ( * 1 lam0n0 ) ( * 1 lam0n1 ) ( * ( - 1 ) lam0n2 ) ( * Nl3CT1 lam0n3 ) ( - 1 ) ) 0 ) ( = ( + ( * ( - 1 ) lam0n0 ) ( * Nl3Pdolen^01 lam0n3 ) ) 0 ) ( = ( + ( * 1 lam0n0 ) ( * Nl3i^01 lam0n3 ) ) 0 ) ( = ( * Nl3num^01 lam0n3 ) 0 ) ( = ( * 1 lam0n2 ) 0 ) ( = ( * ( - 1 ) lam0n1 ) 0 ) ) ( and ( >= lam1n0 0 ) ( >= lam1n1 0 ) ( >= lam1n2 0 ) ( >= lam1n3 0 ) ( > ( + ( * 1 lam1n0 ) ( * 1 lam1n1 ) ( * ( - 1 ) lam1n2 ) ( * Nl3CT1 lam1n3 ) ( - 1 ( + Nl3CT1 ( * Nl3i^01 1 ) ) ) ) 0 ) ( = ( + ( * ( - 1 ) lam1n0 ) ( * Nl3Pdolen^01 lam1n3 ) ( - ( + 0 Nl3Pdolen^01 ) ) ) 0 ) ( = ( + ( * 1 lam1n0 ) ( * Nl3i^01 lam1n3 ) ( - ( + 0 ( * Nl3i^01 1 ) ) ) ) 0 ) ( = ( + ( * Nl3num^01 lam1n3 ) ( - ( + 0 Nl3num^01 ) ) ) 0 ) ( = ( * 1 lam1n2 ) 0 ) ( = ( * ( - 1 ) lam1n1 ) 0 ) ) ))
(assert ( or ( and ( >= lam2n0 0 ) ( >= lam2n1 0 ) ( >= lam2n2 0 ) ( >= lam2n3 0 ) ( >= lam2n4 0 ) ( > ( + ( * 1 lam2n0 ) ( * 1 lam2n1 ) ( * 2 lam2n2 ) ( * 2 lam2n3 ) ( * Nl3CT1 lam2n4 ) ( - 1 ) ) 0 ) ( = ( + ( * ( - 1 ) lam2n0 ) ( * Nl3Pdolen^01 lam2n4 ) ) 0 ) ( = ( + ( * 1 lam2n0 ) ( * Nl3i^01 lam2n4 ) ) 0 ) ( = ( * Nl3num^01 lam2n4 ) 0 ) ( = ( * ( - 1 ) lam2n2 ) 0 ) ( = ( * ( - 1 ) lam2n3 ) 0 ) ( = ( * ( - 1 ) lam2n1 ) 0 ) ) ( and ( >= lam3n0 0 ) ( >= lam3n1 0 ) ( >= lam3n2 0 ) ( >= lam3n3 0 ) ( >= lam3n4 0 ) ( > ( + ( * 1 lam3n0 ) ( * 1 lam3n1 ) ( * 2 lam3n2 ) ( * 2 lam3n3 ) ( * Nl3CT1 lam3n4 ) ( - 1 ( + Nl3CT1 ( * Nl3num^01 1 ) ) ) ) 0 ) ( = ( + ( * ( - 1 ) lam3n0 ) ( * Nl3Pdolen^01 lam3n4 ) ( - ( + 0 Nl3Pdolen^01 ) ) ) 0 ) ( = ( + ( * 1 lam3n0 ) ( * Nl3i^01 lam3n4 ) ( - ( + 0 Nl3i^01 ) ) ) 0 ) ( = ( + ( * Nl3num^01 lam3n4 ) ( - ( + 0 ( * Nl3num^01 1 ) ) ) ) 0 ) ( = ( * ( - 1 ) lam3n2 ) 0 ) ( = ( * ( - 1 ) lam3n3 ) 0 ) ( = ( * ( - 1 ) lam3n1 ) 0 ) ) ))
(assert ( and ( not ( <= ( + Pdolen^0 ( * ( - 1 ) i^0 ) ) 0 ) ) ( = ( + Pdolen^0 ( * ( - 1 ) undef106 ) ) 0 ) ( = ( + i^0 ( * ( - 1 ) undef108 ) ) 0 ) ( <= ( + Nl3CT1 ( * ( + 0 Nl3Pdolen^01 ) Pdolen^0 ) ( * ( + 0 Nl3i^01 ) i^0 ) ( * ( + 0 Nl3num^01 ) num^0 ) ) 0 ) ))
(assert ( or ( and ( and ( >= lam8n0 0 ) ( >= lam8n1 0 ) ( >= lam8n2 0 ) ( >= lam8n3 0 ) ( >= lam8n4 0 ) ( > ( + ( * 1 lam8n0 ) ( * 1 lam8n1 ) ( * 2 lam8n2 ) ( * 2 lam8n3 ) ( * Nl3CT1 lam8n4 ) ( - 1 ( - ( + RFN1_CT ( * RFN1_num^0 1 ) ) RFN1_CT ) ) ) 0 ) ( = ( + ( * ( - 1 ) lam8n0 ) ( * Nl3Pdolen^01 lam8n4 ) ( - ( - ( + 0 RFN1_Pdolen^0 ) RFN1_Pdolen^0 ) ) ) 0 ) ( = ( + ( * 1 lam8n0 ) ( * Nl3i^01 lam8n4 ) ( - ( - ( + 0 RFN1_i^0 ) RFN1_i^0 ) ) ) 0 ) ( = ( + ( * Nl3num^01 lam8n4 ) ( - ( - ( + 0 ( * RFN1_num^0 1 ) ) RFN1_num^0 ) ) ) 0 ) ( = ( * ( - 1 ) lam8n2 ) 0 ) ( = ( * ( - 1 ) lam8n3 ) 0 ) ( = ( * ( - 1 ) lam8n1 ) 0 ) ) ( and ( and ( >= lam6n0 0 ) ( >= lam6n1 0 ) ( >= lam6n2 0 ) ( >= lam6n3 0 ) ( >= lam6n4 0 ) ( > ( + ( * 1 lam6n0 ) ( * 1 lam6n1 ) ( * 2 lam6n2 ) ( * 2 lam6n3 ) ( * Nl3CT1 lam6n4 ) ( - 1 ( - RFN1_CT ) ) ) 0 ) ( = ( + ( * ( - 1 ) lam6n0 ) ( * Nl3Pdolen^01 lam6n4 ) ( - ( - RFN1_Pdolen^0 ) ) ) 0 ) ( = ( + ( * 1 lam6n0 ) ( * Nl3i^01 lam6n4 ) ( - ( - RFN1_i^0 ) ) ) 0 ) ( = ( + ( * Nl3num^01 lam6n4 ) ( - ( - RFN1_num^0 ) ) ) 0 ) ( = ( * ( - 1 ) lam6n2 ) 0 ) ( = ( * ( - 1 ) lam6n3 ) 0 ) ( = ( * ( - 1 ) lam6n1 ) 0 ) ) ( and ( >= lam7n0 0 ) ( >= lam7n1 0 ) ( >= lam7n2 0 ) ( >= lam7n3 0 ) ( >= lam7n4 0 ) ( > ( + ( * 1 lam7n0 ) ( * 1 lam7n1 ) ( * 2 lam7n2 ) ( * 2 lam7n3 ) ( * Nl3CT1 lam7n4 ) ( - 1 ( + ( - ( + RFN1_CT ( * RFN1_num^0 1 ) ) RFN1_CT ) 1 ) ) ) 0 ) ( = ( + ( * ( - 1 ) lam7n0 ) ( * Nl3Pdolen^01 lam7n4 ) ( - ( - ( + 0 RFN1_Pdolen^0 ) RFN1_Pdolen^0 ) ) ) 0 ) ( = ( + ( * 1 lam7n0 ) ( * Nl3i^01 lam7n4 ) ( - ( - ( + 0 RFN1_i^0 ) RFN1_i^0 ) ) ) 0 ) ( = ( + ( * Nl3num^01 lam7n4 ) ( - ( - ( + 0 ( * RFN1_num^0 1 ) ) RFN1_num^0 ) ) ) 0 ) ( = ( * ( - 1 ) lam7n2 ) 0 ) ( = ( * ( - 1 ) lam7n3 ) 0 ) ( = ( * ( - 1 ) lam7n1 ) 0 ) ) ) ) ( and ( >= lam5n0 0 ) ( >= lam5n1 0 ) ( >= lam5n2 0 ) ( >= lam5n3 0 ) ( >= lam5n4 0 ) ( > ( + ( * 1 lam5n0 ) ( * 1 lam5n1 ) ( * 2 lam5n2 ) ( * 2 lam5n3 ) ( * Nl3CT1 lam5n4 ) ( - 1 ) ) 0 ) ( = ( + ( * ( - 1 ) lam5n0 ) ( * Nl3Pdolen^01 lam5n4 ) ) 0 ) ( = ( + ( * 1 lam5n0 ) ( * Nl3i^01 lam5n4 ) ) 0 ) ( = ( * Nl3num^01 lam5n4 ) 0 ) ( = ( * ( - 1 ) lam5n2 ) 0 ) ( = ( * ( - 1 ) lam5n3 ) 0 ) ( = ( * ( - 1 ) lam5n1 ) 0 ) ) ))
(check-sat)
(exit)
